
Gurobi 11.0.3 (linux64) logging started Thu Nov 21 17:40:38 2024

Set parameter LogFile to value "/home/yihong/Coding/OR_SUC/SUC_results_bigM100000_thread4/case24_ieee_rts_theta0.5_epsilon0.025_gurobi_seed140000_num_gen100_N_WDR100_load_scaling_factor1_exact_T24quadra_cost.txt"
Set parameter TimeLimit to value 3600
Gurobi Optimizer version 11.0.3 build v11.0.3rc0 (linux64 - "Ubuntu 20.04.6 LTS")

CPU model: AMD EPYC 7532 32-Core Processor, instruction set [SSE2|AVX|AVX2]
Thread count: 64 physical cores, 128 logical processors, using up to 4 threads

Optimize a model with 52043 rows, 29961 columns and 712938 nonzeros
Model fingerprint: 0x389d9284
Model has 2400 quadratic constraints
Variable types: 27461 continuous, 2500 integer (2500 binary)
Coefficient statistics:
  Matrix range     [4e-05, 1e+05]
  QMatrix range    [2e-03, 8e-03]
  QLMatrix range   [8e-02, 6e+01]
  Objective range  [1e+00, 1e+00]
  Bounds range     [1e+00, 1e+00]
  RHS range        [1e+00, 1e+05]
Presolve removed 42122 rows and 12954 columns
Presolve time: 0.29s
Presolved: 9921 rows, 17007 columns, 62809 nonzeros
Presolved model has 2400 quadratic constraint(s)
Variable types: 14549 continuous, 2458 integer (2458 binary)

Root relaxation: objective 7.572247e+04, 8369 iterations, 0.21 seconds (0.30 work units)

    Nodes    |    Current Node    |     Objective Bounds      |     Work
 Expl Unexpl |  Obj  Depth IntInf | Incumbent    BestBd   Gap | It/Node Time

     0     0 75722.4729    0   27          - 75722.4729      -     -    0s
     0     0 419419.639    0  543          - 419419.639      -     -    1s
     0     0 519052.358    0  583          - 519052.358      -     -    1s
     0     0 701701.496    0  535          - 701701.496      -     -    1s
     0     0 701734.499    0  422          - 701734.499      -     -    1s
     0     0 702048.401    0  340          - 702048.401      -     -    1s
     0     0 702057.026    0  340          - 702057.026      -     -    1s
     0     0 702194.795    0  340          - 702194.795      -     -    1s
     0     0 702198.213    0  340          - 702198.213      -     -    1s
     0     2 702198.213    0  340          - 702198.213      -     -    2s
H  475   248                    703366.73123 702215.643  0.16%  21.0    4s
*  475   248             124    703366.73123 702215.643  0.16%  21.0    4s
H  510   209                    703138.95088 702324.492  0.12%  20.9    4s
*  510   209             131    703138.95088 702324.492  0.12%  21.2    4s
   526   179 702617.549   21  340 703138.951 702324.492  0.12%  22.2    6s

Cutting planes:
  Gomory: 8
  Implied bound: 4
  MIR: 34
  Mixing: 2
  Flow cover: 22
  RLT: 1

Explored 528 nodes (48366 simplex iterations) in 8.31 seconds (8.37 work units)
Thread count was 4 (of 128 available processors)

Solution count 3: 703139 703139 703367 

Optimal solution found (tolerance 1.00e-03)
Warning: max constraint violation (3.1735e-07) exceeds tolerance
Best objective 7.031389508771e+05, best bound 7.024370291369e+05, gap 0.0998%
